% File represents an instance of a Composite Structure problem to be solved by a CP framework
% Created on 2025-03-26 10:42:07.784
T = 58;
n = 36;
m = 60;
edges = [(2, 1),
(8, 7),
(14, 13),
(20, 19),
(26, 25),
(31, 32),
(3, 2),
(8, 9),
(15, 14),
(21, 20),
(27, 26),
(33, 32),
(3, 4),
(9, 10),
(15, 16),
(22, 21),
(28, 27),
(34, 33),
(4, 5),
(10, 11),
(16, 17),
(22, 23),
(28, 29),
(34, 35),
(5, 6),
(11, 12),
(18, 17),
(24, 23),
(30, 29),
(36, 35),
(7, 1),
(7, 13),
(13, 19),
(19, 25),
(31, 25),
(8, 2),
(8, 14),
(14, 20),
(20, 26),
(26, 32),
(3, 9),
(15, 9),
(15, 21),
(21, 27),
(33, 27),
(4, 10),
(16, 10),
(16, 22),
(22, 28),
(34, 28),
(5, 11),
(17, 11),
(23, 17),
(23, 29),
(35, 29),
(6, 12),
(18, 12),
(24, 18),
(24, 30),
(36, 30)];
counts = [|18, 6, 18, 4,
|20, 8, 20, 4,
|22, 10, 22, 4,
|22, 8, 22, 4,
|22, 8, 22, 2,
|22, 4, 22, 2,
|20, 6, 20, 4,
|20, 10, 20, 4,
|20, 10, 20, 2,
|20, 8, 20, 2,
|20, 6, 20, 2,
|20, 4, 20, 2,
|20, 6, 20, 2,
|20, 8, 20, 4,
|20, 14, 20, 4,
|20, 14, 20, 2,
|20, 8, 20, 2,
|20, 10, 20, 2,
|18, 6, 18, 2,
|20, 8, 20, 2,
|20, 10, 20, 2,
|20, 12, 20, 2,
|20, 10, 20, 2,
|22, 12, 22, 2,
|18, 4, 18, 2,
|18, 6, 18, 2,
|18, 8, 18, 2,
|20, 8, 20, 2,
|20, 6, 20, 2,
|20, 10, 20, 2,
|18, 4, 18, 6,
|18, 4, 18, 2,
|18, 10, 18, 2,
|20, 12, 20, 2,
|20, 10, 20, 2,
|20, 12, 20, 6|];
